# Solution for model GlobalModelIlpFixed
# Objective value = 3.4673795330929309e+00
a[0,0,40] 0
a[0,0,41] 0
a[0,0,42] 0
a[0,0,44] 0
a[0,0,47] 0
a[0,0,50] 0
a[0,0,51] 1
a[0,0,57] 0
a[0,0,61] 0
a[0,0,63] 0
a[0,0,64] 0
a[0,0,71] 0
a[0,0,73] 0
a[0,0,81] 0
a[0,0,82] 0
a[0,0,83] 0
a[0,0,88] 0
a[0,0,89] 0
a[0,0,92] 0
a[0,0,94] 0
a[0,0,97] 0
a[0,0,98] 0
a[0,0,102] 0
a[0,0,114] 0
a[0,0,115] 0
a[0,0,120] 0
a[0,0,132] 0
a[0,0,141] 0
a[0,0,144] 0
a[0,0,165] 0
a[0,0,166] 0
a[0,0,168] 0
a[0,0,173] 0
a[0,0,174] 0
a[0,0,196] 0
a[0,0,223] 0
a[0,0,279] 0
a[0,0,282] 0
a[0,1,13] 0
a[0,1,14] 0
a[0,1,16] 0
a[0,1,19] 0
a[0,1,21] 0
a[0,1,24] 0
a[0,1,25] 0
a[0,1,28] 0
a[0,1,34] 0
a[0,1,35] 0
a[0,1,40] 0
a[0,1,41] 0
a[0,1,42] 0
a[0,1,44] 0
a[0,1,47] 0
a[0,1,50] 0
a[0,1,51] 0
a[0,1,57] 0
a[0,1,61] 0
a[0,1,63] 0
a[0,1,64] 0
a[0,1,71] 0
a[0,1,73] 0
a[0,1,81] 0
a[0,1,82] 0
a[0,1,83] 0
a[0,1,88] 0
a[0,1,89] 0
a[0,1,92] 0
a[0,1,94] 0
a[0,1,97] 0
a[0,1,98] 0
a[0,1,102] 0
a[0,1,114] 0
a[0,1,115] 0
a[0,1,120] 0
a[0,1,132] 0
a[0,1,141] 0
a[0,1,144] 0
a[0,1,165] 0
a[0,1,166] 0
a[0,1,168] 0
a[0,1,173] 0
a[0,1,174] 0
a[0,1,196] 0
a[0,1,223] 0
a[0,1,279] 0
a[0,1,282] 0
a[1,0,44] 0
a[1,0,47] 0
a[1,0,50] 0
a[1,0,51] 1
a[1,0,57] 0
a[1,0,61] 0
a[1,0,63] 0
a[1,0,64] 0
a[1,0,71] 0
a[1,0,73] 0
a[1,0,81] 0
a[1,0,82] 0
a[1,0,83] 0
a[1,0,88] 0
a[1,0,89] 0
a[1,0,92] 0
a[1,0,94] 0
a[1,0,97] 0
a[1,0,98] 0
a[1,0,102] 0
a[1,0,114] 0
a[1,0,115] 0
a[1,0,120] 0
a[1,0,132] 0
a[1,0,141] 0
a[1,0,144] 0
a[1,0,165] 0
a[1,0,166] 0
a[1,0,168] 0
a[1,0,173] 0
a[1,0,174] 0
a[1,0,196] 0
a[1,0,223] 0
a[1,0,279] 0
a[1,0,282] 0
a[1,1,19] 0
a[1,1,21] 0
a[1,1,24] 0
a[1,1,25] 0
a[1,1,28] 0
a[1,1,34] 0
a[1,1,35] 0
a[1,1,40] 0
a[1,1,41] 0
a[1,1,42] 0
a[1,1,44] 0
a[1,1,47] 0
a[1,1,50] 0
a[1,1,51] 0
a[1,1,57] 0
a[1,1,61] 0
a[1,1,63] 0
a[1,1,64] 0
a[1,1,71] 0
a[1,1,73] 0
a[1,1,81] 0
a[1,1,82] 0
a[1,1,83] 0
a[1,1,88] 0
a[1,1,89] 0
a[1,1,92] 0
a[1,1,94] 0
a[1,1,97] 0
a[1,1,98] 0
a[1,1,102] 0
a[1,1,114] 0
a[1,1,115] 0
a[1,1,120] 0
a[1,1,132] 0
a[1,1,141] 0
a[1,1,144] 0
a[1,1,165] 0
a[1,1,166] 0
a[1,1,168] 0
a[1,1,173] 0
a[1,1,174] 0
a[1,1,196] 0
a[1,1,223] 0
a[1,1,279] 0
a[1,1,282] 0
a[2,0,120] 0
a[2,0,132] 0
a[2,0,141] 0
a[2,0,144] 1
a[2,0,165] 0
a[2,0,166] 0
a[2,0,168] 0
a[2,0,173] 0
a[2,0,174] 0
a[2,0,196] 0
a[2,0,223] 0
a[2,0,279] 0
a[2,0,282] 0
a[2,1,35] 0
a[2,1,40] 0
a[2,1,41] 0
a[2,1,42] 0
a[2,1,44] 0
a[2,1,47] 0
a[2,1,50] 0
a[2,1,51] 0
a[2,1,57] 0
a[2,1,61] 0
a[2,1,63] 0
a[2,1,64] 0
a[2,1,71] 0
a[2,1,73] 0
a[2,1,81] 0
a[2,1,82] 0
a[2,1,83] 0
a[2,1,88] 0
a[2,1,89] 0
a[2,1,92] 0
a[2,1,94] 0
a[2,1,97] 0
a[2,1,98] 0
a[2,1,102] 0
a[2,1,114] 0
a[2,1,115] 0
a[2,1,120] 0
a[2,1,132] 0
a[2,1,141] 0
a[2,1,144] 0
a[2,1,165] 0
a[2,1,166] 0
a[2,1,168] 0
a[2,1,173] 0
a[2,1,174] 0
a[2,1,196] 0
a[2,1,223] 0
a[2,1,279] 0
a[2,1,282] 0
a[3,0,61] 0
a[3,0,63] 0
a[3,0,64] 0
a[3,0,71] 0
a[3,0,73] 0
a[3,0,81] 0
a[3,0,82] 0
a[3,0,83] 0
a[3,0,88] 0
a[3,0,89] 0
a[3,0,92] 0
a[3,0,94] 0
a[3,0,97] 0
a[3,0,98] 0
a[3,0,102] 0
a[3,0,114] 0
a[3,0,115] 0
a[3,0,120] 0
a[3,0,132] 0
a[3,0,141] 0
a[3,0,144] 0
a[3,0,165] 0
a[3,0,166] 0
a[3,0,168] 0
a[3,0,173] 0
a[3,0,174] 0
a[3,0,196] 0
a[3,0,223] 0
a[3,0,279] 0
a[3,0,282] 0
a[3,1,25] 0
a[3,1,28] 0
a[3,1,34] 0
a[3,1,35] 0
a[3,1,40] 0
a[3,1,41] 0
a[3,1,42] 0
a[3,1,44] 0
a[3,1,47] 0
a[3,1,50] 0
a[3,1,51] 0
a[3,1,57] 0
a[3,1,61] 0
a[3,1,63] 0
a[3,1,64] 0
a[3,1,71] 0
a[3,1,73] 0
a[3,1,81] 0
a[3,1,82] 0
a[3,1,83] 0
a[3,1,88] 0
a[3,1,89] 0
a[3,1,92] 0
a[3,1,94] 0
a[3,1,97] 0
a[3,1,98] 0
a[3,1,102] 0
a[3,1,114] 0
a[3,1,115] 0
a[3,1,120] 0
a[3,1,132] 0
a[3,1,141] 0
a[3,1,144] 1
a[3,1,165] 0
a[3,1,166] 0
a[3,1,168] 0
a[3,1,173] 0
a[3,1,174] 0
a[3,1,196] 0
a[3,1,223] 0
a[3,1,279] 0
a[3,1,282] 0
a[4,0,92] 0
a[4,0,94] 0
a[4,0,97] 0
a[4,0,98] 0
a[4,0,102] 1
a[4,0,114] 0
a[4,0,115] 0
a[4,0,120] 0
a[4,0,132] 0
a[4,0,141] 0
a[4,0,144] 0
a[4,0,165] 0
a[4,0,166] 0
a[4,0,168] 0
a[4,0,173] 0
a[4,0,174] 0
a[4,0,196] 0
a[4,0,223] 0
a[4,0,279] 0
a[4,0,282] 0
a[4,1,44] 0
a[4,1,47] 0
a[4,1,50] 0
a[4,1,51] 0
a[4,1,57] 0
a[4,1,61] 0
a[4,1,63] 0
a[4,1,64] 0
a[4,1,71] 0
a[4,1,73] 0
a[4,1,81] 0
a[4,1,82] 0
a[4,1,83] 0
a[4,1,88] 0
a[4,1,89] 0
a[4,1,92] 0
a[4,1,94] 0
a[4,1,97] 0
a[4,1,98] 0
a[4,1,102] 0
a[4,1,114] 0
a[4,1,115] 0
a[4,1,120] 0
a[4,1,132] 0
a[4,1,141] 0
a[4,1,144] 0
a[4,1,165] 0
a[4,1,166] 0
a[4,1,168] 0
a[4,1,173] 0
a[4,1,174] 0
a[4,1,196] 0
a[4,1,223] 0
a[4,1,279] 0
a[4,1,282] 0
a[5,0,98] 0
a[5,0,102] 1
a[5,0,114] 0
a[5,0,115] 0
a[5,0,120] 0
a[5,0,132] 0
a[5,0,141] 0
a[5,0,144] 0
a[5,0,165] 0
a[5,0,166] 0
a[5,0,168] 0
a[5,0,173] 0
a[5,0,174] 0
a[5,0,196] 0
a[5,0,223] 0
a[5,0,279] 0
a[5,0,282] 0
a[5,1,42] 0
a[5,1,44] 0
a[5,1,47] 0
a[5,1,50] 0
a[5,1,51] 0
a[5,1,57] 0
a[5,1,61] 0
a[5,1,63] 0
a[5,1,64] 0
a[5,1,71] 0
a[5,1,73] 0
a[5,1,81] 0
a[5,1,82] 0
a[5,1,83] 0
a[5,1,88] 0
a[5,1,89] 0
a[5,1,92] 0
a[5,1,94] 0
a[5,1,97] 0
a[5,1,98] 0
a[5,1,102] 0
a[5,1,114] 0
a[5,1,115] 0
a[5,1,120] 0
a[5,1,132] 0
a[5,1,141] 0
a[5,1,144] 0
a[5,1,165] 0
a[5,1,166] 0
a[5,1,168] 0
a[5,1,173] 0
a[5,1,174] 0
a[5,1,196] 0
a[5,1,223] 0
a[5,1,279] 0
a[5,1,282] 0
a[6,0,196] 0
a[6,0,223] 0
a[6,0,279] 0
a[6,0,282] 0
a[6,1,98] 0
a[6,1,102] 1
a[6,1,114] 0
a[6,1,115] 0
a[6,1,120] 0
a[6,1,132] 0
a[6,1,141] 0
a[6,1,144] 0
a[6,1,165] 0
a[6,1,166] 0
a[6,1,168] 0
a[6,1,173] 0
a[6,1,174] 0
a[6,1,196] 0
a[6,1,223] 0
a[6,1,279] 0
a[6,1,282] 0
a[7,0,73] 0
a[7,0,81] 0
a[7,0,82] 0
a[7,0,83] 0
a[7,0,88] 0
a[7,0,89] 0
a[7,0,92] 0
a[7,0,94] 0
a[7,0,97] 0
a[7,0,98] 0
a[7,0,102] 0
a[7,0,114] 1
a[7,0,115] 0
a[7,0,120] 0
a[7,0,132] 0
a[7,0,141] 0
a[7,0,144] 0
a[7,0,165] 0
a[7,0,166] 0
a[7,0,168] 0
a[7,0,173] 0
a[7,0,174] 0
a[7,0,196] 0
a[7,0,223] 0
a[7,0,279] 0
a[7,0,282] 0
a[7,1,47] 0
a[7,1,50] 0
a[7,1,51] 0
a[7,1,57] 0
a[7,1,61] 0
a[7,1,63] 0
a[7,1,64] 0
a[7,1,71] 0
a[7,1,73] 0
a[7,1,81] 0
a[7,1,82] 0
a[7,1,83] 0
a[7,1,88] 0
a[7,1,89] 0
a[7,1,92] 0
a[7,1,94] 0
a[7,1,97] 0
a[7,1,98] 0
a[7,1,102] 0
a[7,1,114] 0
a[7,1,115] 0
a[7,1,120] 0
a[7,1,132] 0
a[7,1,141] 0
a[7,1,144] 0
a[7,1,165] 0
a[7,1,166] 0
a[7,1,168] 0
a[7,1,173] 0
a[7,1,174] 0
a[7,1,196] 0
a[7,1,223] 0
a[7,1,279] 0
a[7,1,282] 0
a[8,0,102] 1
a[8,0,114] 0
a[8,0,115] 0
a[8,0,120] 0
a[8,0,132] 0
a[8,0,141] 0
a[8,0,144] 0
a[8,0,165] 0
a[8,0,166] 0
a[8,0,168] 0
a[8,0,173] 0
a[8,0,174] 0
a[8,0,196] 0
a[8,0,223] 0
a[8,0,279] 0
a[8,0,282] 0
a[8,1,40] 0
a[8,1,41] 0
a[8,1,42] 0
a[8,1,44] 0
a[8,1,47] 0
a[8,1,50] 0
a[8,1,51] 0
a[8,1,57] 0
a[8,1,61] 0
a[8,1,63] 0
a[8,1,64] 0
a[8,1,71] 0
a[8,1,73] 0
a[8,1,81] 0
a[8,1,82] 0
a[8,1,83] 0
a[8,1,88] 0
a[8,1,89] 0
a[8,1,92] 0
a[8,1,94] 0
a[8,1,97] 0
a[8,1,98] 0
a[8,1,102] 0
a[8,1,114] 0
a[8,1,115] 0
a[8,1,120] 0
a[8,1,132] 0
a[8,1,141] 0
a[8,1,144] 0
a[8,1,165] 0
a[8,1,166] 0
a[8,1,168] 0
a[8,1,173] 0
a[8,1,174] 0
a[8,1,196] 0
a[8,1,223] 0
a[8,1,279] 0
a[8,1,282] 0
a[9,0,5] 0
a[9,0,6] 0
a[9,0,7] 0
a[9,0,8] 0
a[9,0,9] 1
a[9,0,10] 0
a[9,0,13] 0
a[9,0,14] 0
a[9,0,16] 0
a[9,0,19] 0
a[9,0,21] 0
a[9,0,24] 0
a[9,0,25] 0
a[9,0,28] 0
a[9,0,34] 0
a[9,0,35] 0
a[9,0,40] 0
a[9,0,41] 0
a[9,0,42] 0
a[9,0,44] 0
a[9,0,47] 0
a[9,0,50] 0
a[9,0,51] 0
a[9,0,57] 0
a[9,0,61] 0
a[9,0,63] 0
a[9,0,64] 0
a[9,0,71] 0
a[9,0,73] 0
a[9,0,81] 0
a[9,0,82] 0
a[9,0,83] 0
a[9,0,88] 0
a[9,0,89] 0
a[9,0,92] 0
a[9,0,94] 0
a[9,0,97] 0
a[9,0,98] 0
a[9,0,102] 0
a[9,0,114] 0
a[9,0,115] 0
a[9,0,120] 0
a[9,0,132] 0
a[9,0,141] 0
a[9,0,144] 0
a[9,0,165] 0
a[9,0,166] 0
a[9,0,168] 0
a[9,0,173] 0
a[9,0,174] 0
a[9,0,196] 0
a[9,0,223] 0
a[9,0,279] 0
a[9,0,282] 0
a[9,1,4] 0
a[9,1,5] 0
a[9,1,6] 0
a[9,1,7] 0
a[9,1,8] 0
a[9,1,9] 0
a[9,1,10] 0
a[9,1,13] 0
a[9,1,14] 0
a[9,1,16] 0
a[9,1,19] 0
a[9,1,21] 0
a[9,1,24] 0
a[9,1,25] 0
a[9,1,28] 0
a[9,1,34] 0
a[9,1,35] 0
a[9,1,40] 0
a[9,1,41] 0
a[9,1,42] 0
a[9,1,44] 0
a[9,1,47] 0
a[9,1,50] 0
a[9,1,51] 0
a[9,1,57] 0
a[9,1,61] 0
a[9,1,63] 0
a[9,1,64] 0
a[9,1,71] 0
a[9,1,73] 0
a[9,1,81] 0
a[9,1,82] 0
a[9,1,83] 0
a[9,1,88] 0
a[9,1,89] 0
a[9,1,92] 0
a[9,1,94] 0
a[9,1,97] 0
a[9,1,98] 0
a[9,1,102] 0
a[9,1,114] 0
a[9,1,115] 0
a[9,1,120] 0
a[9,1,132] 0
a[9,1,141] 0
a[9,1,144] 0
a[9,1,165] 0
a[9,1,166] 0
a[9,1,168] 0
a[9,1,173] 0
a[9,1,174] 0
a[9,1,196] 0
a[9,1,223] 0
a[9,1,279] 0
a[9,1,282] 0
a[10,0,16] 0
a[10,0,19] 0
a[10,0,21] 0
a[10,0,24] 0
a[10,0,25] 0
a[10,0,28] 0
a[10,0,34] 0
a[10,0,35] 0
a[10,0,40] 0
a[10,0,41] 0
a[10,0,42] 0
a[10,0,44] 0
a[10,0,47] 0
a[10,0,50] 0
a[10,0,51] 0
a[10,0,57] 0
a[10,0,61] 0
a[10,0,63] 0
a[10,0,64] 0
a[10,0,71] 0
a[10,0,73] 0
a[10,0,81] 0
a[10,0,82] 0
a[10,0,83] 0
a[10,0,88] 0
a[10,0,89] 0
a[10,0,92] 0
a[10,0,94] 0
a[10,0,97] 0
a[10,0,98] 0
a[10,0,102] 0
a[10,0,114] 0
a[10,0,115] 0
a[10,0,120] 0
a[10,0,132] 0
a[10,0,141] 0
a[10,0,144] 0
a[10,0,165] 0
a[10,0,166] 0
a[10,0,168] 0
a[10,0,173] 0
a[10,0,174] 0
a[10,0,196] 0
a[10,0,223] 0
a[10,0,279] 0
a[10,0,282] 0
a[10,1,14] 0
a[10,1,16] 0
a[10,1,19] 0
a[10,1,21] 0
a[10,1,24] 0
a[10,1,25] 0
a[10,1,28] 0
a[10,1,34] 0
a[10,1,35] 0
a[10,1,40] 0
a[10,1,41] 0
a[10,1,42] 0
a[10,1,44] 0
a[10,1,47] 0
a[10,1,50] 0
a[10,1,51] 0
a[10,1,57] 0
a[10,1,61] 0
a[10,1,63] 0
a[10,1,64] 0
a[10,1,71] 0
a[10,1,73] 0
a[10,1,81] 0
a[10,1,82] 0
a[10,1,83] 0
a[10,1,88] 0
a[10,1,89] 0
a[10,1,92] 0
a[10,1,94] 0
a[10,1,97] 0
a[10,1,98] 0
a[10,1,102] 0
a[10,1,114] 0
a[10,1,115] 0
a[10,1,120] 0
a[10,1,132] 0
a[10,1,141] 0
a[10,1,144] 0
a[10,1,165] 0
a[10,1,166] 0
a[10,1,168] 0
a[10,1,173] 0
a[10,1,174] 1
a[10,1,196] 0
a[10,1,223] 0
a[10,1,279] 0
a[10,1,282] 0
a[11,0,3] 0
a[11,0,4] 0
a[11,0,5] 0
a[11,0,6] 0
a[11,0,7] 0
a[11,0,8] 0
a[11,0,9] 0
a[11,0,10] 0
a[11,0,13] 0
a[11,0,14] 0
a[11,0,16] 0
a[11,0,19] 0
a[11,0,21] 0
a[11,0,24] 0
a[11,0,25] 0
a[11,0,28] 0
a[11,0,34] 0
a[11,0,35] 0
a[11,0,40] 0
a[11,0,41] 0
a[11,0,42] 0
a[11,0,44] 0
a[11,0,47] 0
a[11,0,50] 0
a[11,0,51] 0
a[11,0,57] 0
a[11,0,61] 0
a[11,0,63] 0
a[11,0,64] 0
a[11,0,71] 0
a[11,0,73] 0
a[11,0,81] 0
a[11,0,82] 0
a[11,0,83] 0
a[11,0,88] 0
a[11,0,89] 0
a[11,0,92] 0
a[11,0,94] 0
a[11,0,97] 0
a[11,0,98] 0
a[11,0,102] 0
a[11,0,114] 0
a[11,0,115] 0
a[11,0,120] 0
a[11,0,132] 0
a[11,0,141] 0
a[11,0,144] 0
a[11,0,165] 0
a[11,0,166] 0
a[11,0,168] 0
a[11,0,173] 0
a[11,0,174] 0
a[11,0,196] 0
a[11,0,223] 0
a[11,0,279] 0
a[11,0,282] 0
a[11,1,3] 0
a[11,1,4] 0
a[11,1,5] 0
a[11,1,6] 0
a[11,1,7] 0
a[11,1,8] 0
a[11,1,9] 0
a[11,1,10] 0
a[11,1,13] 0
a[11,1,14] 0
a[11,1,16] 0
a[11,1,19] 0
a[11,1,21] 0
a[11,1,24] 0
a[11,1,25] 0
a[11,1,28] 0
a[11,1,34] 0
a[11,1,35] 0
a[11,1,40] 0
a[11,1,41] 0
a[11,1,42] 0
a[11,1,44] 0
a[11,1,47] 0
a[11,1,50] 0
a[11,1,51] 0
a[11,1,57] 0
a[11,1,61] 0
a[11,1,63] 0
a[11,1,64] 0
a[11,1,71] 0
a[11,1,73] 0
a[11,1,81] 0
a[11,1,82] 0
a[11,1,83] 0
a[11,1,88] 0
a[11,1,89] 0
a[11,1,92] 0
a[11,1,94] 0
a[11,1,97] 0
a[11,1,98] 0
a[11,1,102] 0
a[11,1,114] 0
a[11,1,115] 0
a[11,1,120] 0
a[11,1,132] 0
a[11,1,141] 0
a[11,1,144] 1
a[11,1,165] 0
a[11,1,166] 0
a[11,1,168] 0
a[11,1,173] 0
a[11,1,174] 0
a[11,1,196] 0
a[11,1,223] 0
a[11,1,279] 0
a[11,1,282] 0
a[12,0,174] 1
a[12,0,196] 0
a[12,0,223] 0
a[12,0,279] 0
a[12,0,282] 0
a[12,1,51] 0
a[12,1,57] 0
a[12,1,61] 0
a[12,1,63] 0
a[12,1,64] 0
a[12,1,71] 0
a[12,1,73] 0
a[12,1,81] 0
a[12,1,82] 0
a[12,1,83] 0
a[12,1,88] 0
a[12,1,89] 0
a[12,1,92] 0
a[12,1,94] 0
a[12,1,97] 0
a[12,1,98] 0
a[12,1,102] 0
a[12,1,114] 0
a[12,1,115] 0
a[12,1,120] 0
a[12,1,132] 0
a[12,1,141] 0
a[12,1,144] 0
a[12,1,165] 0
a[12,1,166] 0
a[12,1,168] 0
a[12,1,173] 0
a[12,1,174] 0
a[12,1,196] 0
a[12,1,223] 0
a[12,1,279] 0
a[12,1,282] 0
a[13,0,64] 0
a[13,0,71] 0
a[13,0,73] 0
a[13,0,81] 0
a[13,0,82] 0
a[13,0,83] 0
a[13,0,88] 0
a[13,0,89] 0
a[13,0,92] 0
a[13,0,94] 0
a[13,0,97] 0
a[13,0,98] 0
a[13,0,102] 0
a[13,0,114] 1
a[13,0,115] 0
a[13,0,120] 0
a[13,0,132] 0
a[13,0,141] 0
a[13,0,144] 0
a[13,0,165] 0
a[13,0,166] 0
a[13,0,168] 0
a[13,0,173] 0
a[13,0,174] 0
a[13,0,196] 0
a[13,0,223] 0
a[13,0,279] 0
a[13,0,282] 0
a[13,1,57] 0
a[13,1,61] 0
a[13,1,63] 0
a[13,1,64] 0
a[13,1,71] 0
a[13,1,73] 0
a[13,1,81] 0
a[13,1,82] 0
a[13,1,83] 0
a[13,1,88] 0
a[13,1,89] 0
a[13,1,92] 0
a[13,1,94] 0
a[13,1,97] 0
a[13,1,98] 0
a[13,1,102] 0
a[13,1,114] 0
a[13,1,115] 0
a[13,1,120] 0
a[13,1,132] 0
a[13,1,141] 0
a[13,1,144] 0
a[13,1,165] 0
a[13,1,166] 0
a[13,1,168] 0
a[13,1,173] 0
a[13,1,174] 0
a[13,1,196] 0
a[13,1,223] 0
a[13,1,279] 0
a[13,1,282] 0
a[14,0,165] 0
a[14,0,166] 0
a[14,0,168] 0
a[14,0,173] 0
a[14,0,174] 1
a[14,0,196] 0
a[14,0,223] 0
a[14,0,279] 0
a[14,0,282] 0
a[14,1,97] 0
a[14,1,98] 0
a[14,1,102] 0
a[14,1,114] 0
a[14,1,115] 0
a[14,1,120] 0
a[14,1,132] 0
a[14,1,141] 0
a[14,1,144] 0
a[14,1,165] 0
a[14,1,166] 0
a[14,1,168] 0
a[14,1,173] 0
a[14,1,174] 0
a[14,1,196] 0
a[14,1,223] 0
a[14,1,279] 0
a[14,1,282] 0
a[15,0,168] 0
a[15,0,173] 0
a[15,0,174] 1
a[15,0,196] 0
a[15,0,223] 0
a[15,0,279] 0
a[15,0,282] 0
a[15,1,83] 0
a[15,1,88] 0
a[15,1,89] 0
a[15,1,92] 0
a[15,1,94] 0
a[15,1,97] 0
a[15,1,98] 0
a[15,1,102] 0
a[15,1,114] 0
a[15,1,115] 0
a[15,1,120] 0
a[15,1,132] 0
a[15,1,141] 0
a[15,1,144] 0
a[15,1,165] 0
a[15,1,166] 0
a[15,1,168] 0
a[15,1,173] 0
a[15,1,174] 0
a[15,1,196] 0
a[15,1,223] 0
a[15,1,279] 0
a[15,1,282] 0
a[16,0,42] 0
a[16,0,44] 0
a[16,0,47] 0
a[16,0,50] 0
a[16,0,51] 0
a[16,0,57] 0
a[16,0,61] 0
a[16,0,63] 0
a[16,0,64] 0
a[16,0,71] 0
a[16,0,73] 0
a[16,0,81] 0
a[16,0,82] 0
a[16,0,83] 0
a[16,0,88] 0
a[16,0,89] 0
a[16,0,92] 0
a[16,0,94] 0
a[16,0,97] 0
a[16,0,98] 0
a[16,0,102] 0
a[16,0,114] 0
a[16,0,115] 0
a[16,0,120] 0
a[16,0,132] 0
a[16,0,141] 0
a[16,0,144] 0
a[16,0,165] 0
a[16,0,166] 0
a[16,0,168] 0
a[16,0,173] 0
a[16,0,174] 0
a[16,0,196] 0
a[16,0,223] 0
a[16,0,279] 0
a[16,0,282] 0
a[16,1,16] 0
a[16,1,19] 0
a[16,1,21] 0
a[16,1,24] 0
a[16,1,25] 0
a[16,1,28] 0
a[16,1,34] 0
a[16,1,35] 0
a[16,1,40] 0
a[16,1,41] 0
a[16,1,42] 0
a[16,1,44] 0
a[16,1,47] 0
a[16,1,50] 0
a[16,1,51] 0
a[16,1,57] 0
a[16,1,61] 0
a[16,1,63] 0
a[16,1,64] 0
a[16,1,71] 0
a[16,1,73] 0
a[16,1,81] 0
a[16,1,82] 0
a[16,1,83] 0
a[16,1,88] 0
a[16,1,89] 0
a[16,1,92] 0
a[16,1,94] 0
a[16,1,97] 0
a[16,1,98] 0
a[16,1,102] 0
a[16,1,114] 1
a[16,1,115] 0
a[16,1,120] 0
a[16,1,132] 0
a[16,1,141] 0
a[16,1,144] 0
a[16,1,165] 0
a[16,1,166] 0
a[16,1,168] 0
a[16,1,173] 0
a[16,1,174] 0
a[16,1,196] 0
a[16,1,223] 0
a[16,1,279] 0
a[16,1,282] 0
a[17,0,132] 0
a[17,0,141] 0
a[17,0,144] 1
a[17,0,165] 0
a[17,0,166] 0
a[17,0,168] 0
a[17,0,173] 0
a[17,0,174] 0
a[17,0,196] 0
a[17,0,223] 0
a[17,0,279] 0
a[17,0,282] 0
a[17,1,92] 0
a[17,1,94] 0
a[17,1,97] 0
a[17,1,98] 0
a[17,1,102] 0
a[17,1,114] 0
a[17,1,115] 0
a[17,1,120] 0
a[17,1,132] 0
a[17,1,141] 0
a[17,1,144] 0
a[17,1,165] 0
a[17,1,166] 0
a[17,1,168] 0
a[17,1,173] 0
a[17,1,174] 0
a[17,1,196] 0
a[17,1,223] 0
a[17,1,279] 0
a[17,1,282] 0
a[18,0,141] 0
a[18,0,144] 0
a[18,0,165] 0
a[18,0,166] 0
a[18,0,168] 0
a[18,0,173] 0
a[18,0,174] 0
a[18,0,196] 0
a[18,0,223] 0
a[18,0,279] 0
a[18,0,282] 0
a[18,1,89] 0
a[18,1,92] 0
a[18,1,94] 0
a[18,1,97] 0
a[18,1,98] 0
a[18,1,102] 0
a[18,1,114] 0
a[18,1,115] 0
a[18,1,120] 0
a[18,1,132] 0
a[18,1,141] 0
a[18,1,144] 0
a[18,1,165] 0
a[18,1,166] 0
a[18,1,168] 0
a[18,1,173] 0
a[18,1,174] 1
a[18,1,196] 0
a[18,1,223] 0
a[18,1,279] 0
a[18,1,282] 0
a[19,0,282] 0
a[19,1,94] 0
a[19,1,97] 0
a[19,1,98] 0
a[19,1,102] 1
a[19,1,114] 0
a[19,1,115] 0
a[19,1,120] 0
a[19,1,132] 0
a[19,1,141] 0
a[19,1,144] 0
a[19,1,165] 0
a[19,1,166] 0
a[19,1,168] 0
a[19,1,173] 0
a[19,1,174] 0
a[19,1,196] 0
a[19,1,223] 0
a[19,1,279] 0
a[19,1,282] 0
a[20,0,279] 0
a[20,0,282] 0
a[20,1,81] 0
a[20,1,82] 0
a[20,1,83] 0
a[20,1,88] 0
a[20,1,89] 0
a[20,1,92] 0
a[20,1,94] 0
a[20,1,97] 0
a[20,1,98] 0
a[20,1,102] 1
a[20,1,114] 0
a[20,1,115] 0
a[20,1,120] 0
a[20,1,132] 0
a[20,1,141] 0
a[20,1,144] 0
a[20,1,165] 0
a[20,1,166] 0
a[20,1,168] 0
a[20,1,173] 0
a[20,1,174] 0
a[20,1,196] 0
a[20,1,223] 0
a[20,1,279] 0
a[20,1,282] 0
a[21,0,166] 0
a[21,0,168] 0
a[21,0,173] 0
a[21,0,174] 0
a[21,0,196] 0
a[21,0,223] 0
a[21,0,279] 0
a[21,0,282] 0
a[21,1,51] 1
a[21,1,57] 0
a[21,1,61] 0
a[21,1,63] 0
a[21,1,64] 0
a[21,1,71] 0
a[21,1,73] 0
a[21,1,81] 0
a[21,1,82] 0
a[21,1,83] 0
a[21,1,88] 0
a[21,1,89] 0
a[21,1,92] 0
a[21,1,94] 0
a[21,1,97] 0
a[21,1,98] 0
a[21,1,102] 0
a[21,1,114] 0
a[21,1,115] 0
a[21,1,120] 0
a[21,1,132] 0
a[21,1,141] 0
a[21,1,144] 0
a[21,1,165] 0
a[21,1,166] 0
a[21,1,168] 0
a[21,1,173] 0
a[21,1,174] 0
a[21,1,196] 0
a[21,1,223] 0
a[21,1,279] 0
a[21,1,282] 0
a[22,0,144] 1
a[22,0,165] 0
a[22,0,166] 0
a[22,0,168] 0
a[22,0,173] 0
a[22,0,174] 0
a[22,0,196] 0
a[22,0,223] 0
a[22,0,279] 0
a[22,0,282] 0
a[22,1,71] 0
a[22,1,73] 0
a[22,1,81] 0
a[22,1,82] 0
a[22,1,83] 0
a[22,1,88] 0
a[22,1,89] 0
a[22,1,92] 0
a[22,1,94] 0
a[22,1,97] 0
a[22,1,98] 0
a[22,1,102] 0
a[22,1,114] 0
a[22,1,115] 0
a[22,1,120] 0
a[22,1,132] 0
a[22,1,141] 0
a[22,1,144] 0
a[22,1,165] 0
a[22,1,166] 0
a[22,1,168] 0
a[22,1,173] 0
a[22,1,174] 0
a[22,1,196] 0
a[22,1,223] 0
a[22,1,279] 0
a[22,1,282] 0
a[23,0,34] 0
a[23,0,35] 0
a[23,0,40] 0
a[23,0,41] 0
a[23,0,42] 0
a[23,0,44] 0
a[23,0,47] 0
a[23,0,50] 0
a[23,0,51] 0
a[23,0,57] 0
a[23,0,61] 0
a[23,0,63] 0
a[23,0,64] 0
a[23,0,71] 0
a[23,0,73] 0
a[23,0,81] 0
a[23,0,82] 0
a[23,0,83] 0
a[23,0,88] 0
a[23,0,89] 0
a[23,0,92] 0
a[23,0,94] 0
a[23,0,97] 0
a[23,0,98] 0
a[23,0,102] 0
a[23,0,114] 0
a[23,0,115] 0
a[23,0,120] 0
a[23,0,132] 0
a[23,0,141] 0
a[23,0,144] 0
a[23,0,165] 0
a[23,0,166] 0
a[23,0,168] 0
a[23,0,173] 0
a[23,0,174] 0
a[23,0,196] 0
a[23,0,223] 0
a[23,0,279] 0
a[23,0,282] 0
a[23,1,19] 0
a[23,1,21] 0
a[23,1,24] 0
a[23,1,25] 0
a[23,1,28] 0
a[23,1,34] 0
a[23,1,35] 0
a[23,1,40] 0
a[23,1,41] 0
a[23,1,42] 0
a[23,1,44] 0
a[23,1,47] 0
a[23,1,50] 0
a[23,1,51] 0
a[23,1,57] 0
a[23,1,61] 0
a[23,1,63] 0
a[23,1,64] 0
a[23,1,71] 0
a[23,1,73] 0
a[23,1,81] 0
a[23,1,82] 0
a[23,1,83] 0
a[23,1,88] 0
a[23,1,89] 0
a[23,1,92] 0
a[23,1,94] 0
a[23,1,97] 0
a[23,1,98] 0
a[23,1,102] 0
a[23,1,114] 0
a[23,1,115] 0
a[23,1,120] 0
a[23,1,132] 0
a[23,1,141] 0
a[23,1,144] 0
a[23,1,165] 0
a[23,1,166] 0
a[23,1,168] 0
a[23,1,173] 0
a[23,1,174] 1
a[23,1,196] 0
a[23,1,223] 0
a[23,1,279] 0
a[23,1,282] 0
a[24,0,21] 0
a[24,0,24] 0
a[24,0,25] 0
a[24,0,28] 0
a[24,0,34] 0
a[24,0,35] 0
a[24,0,40] 0
a[24,0,41] 0
a[24,0,42] 0
a[24,0,44] 0
a[24,0,47] 0
a[24,0,50] 0
a[24,0,51] 0
a[24,0,57] 0
a[24,0,61] 0
a[24,0,63] 0
a[24,0,64] 0
a[24,0,71] 0
a[24,0,73] 0
a[24,0,81] 0
a[24,0,82] 0
a[24,0,83] 0
a[24,0,88] 0
a[24,0,89] 0
a[24,0,92] 0
a[24,0,94] 0
a[24,0,97] 0
a[24,0,98] 0
a[24,0,102] 0
a[24,0,114] 0
a[24,0,115] 0
a[24,0,120] 0
a[24,0,132] 0
a[24,0,141] 0
a[24,0,144] 0
a[24,0,165] 0
a[24,0,166] 0
a[24,0,168] 0
a[24,0,173] 0
a[24,0,174] 0
a[24,0,196] 0
a[24,0,223] 0
a[24,0,279] 0
a[24,0,282] 0
a[24,1,7] 0
a[24,1,8] 0
a[24,1,9] 0
a[24,1,10] 0
a[24,1,13] 0
a[24,1,14] 0
a[24,1,16] 0
a[24,1,19] 0
a[24,1,21] 0
a[24,1,24] 0
a[24,1,25] 0
a[24,1,28] 0
a[24,1,34] 0
a[24,1,35] 0
a[24,1,40] 0
a[24,1,41] 0
a[24,1,42] 0
a[24,1,44] 0
a[24,1,47] 0
a[24,1,50] 0
a[24,1,51] 0
a[24,1,57] 0
a[24,1,61] 0
a[24,1,63] 0
a[24,1,64] 0
a[24,1,71] 0
a[24,1,73] 0
a[24,1,81] 0
a[24,1,82] 0
a[24,1,83] 0
a[24,1,88] 0
a[24,1,89] 0
a[24,1,92] 0
a[24,1,94] 0
a[24,1,97] 0
a[24,1,98] 0
a[24,1,102] 0
a[24,1,114] 0
a[24,1,115] 0
a[24,1,120] 0
a[24,1,132] 0
a[24,1,141] 0
a[24,1,144] 1
a[24,1,165] 0
a[24,1,166] 0
a[24,1,168] 0
a[24,1,173] 0
a[24,1,174] 0
a[24,1,196] 0
a[24,1,223] 0
a[24,1,279] 0
a[24,1,282] 0
a[25,0,173] 0
a[25,0,174] 0
a[25,0,196] 0
a[25,0,223] 0
a[25,0,279] 0
a[25,0,282] 0
a[25,1,50] 0
a[25,1,51] 1
a[25,1,57] 0
a[25,1,61] 0
a[25,1,63] 0
a[25,1,64] 0
a[25,1,71] 0
a[25,1,73] 0
a[25,1,81] 0
a[25,1,82] 0
a[25,1,83] 0
a[25,1,88] 0
a[25,1,89] 0
a[25,1,92] 0
a[25,1,94] 0
a[25,1,97] 0
a[25,1,98] 0
a[25,1,102] 0
a[25,1,114] 0
a[25,1,115] 0
a[25,1,120] 0
a[25,1,132] 0
a[25,1,141] 0
a[25,1,144] 0
a[25,1,165] 0
a[25,1,166] 0
a[25,1,168] 0
a[25,1,173] 0
a[25,1,174] 0
a[25,1,196] 0
a[25,1,223] 0
a[25,1,279] 0
a[25,1,282] 0
a[26,0,82] 0
a[26,0,83] 0
a[26,0,88] 0
a[26,0,89] 0
a[26,0,92] 0
a[26,0,94] 0
a[26,0,97] 0
a[26,0,98] 0
a[26,0,102] 0
a[26,0,114] 0
a[26,0,115] 0
a[26,0,120] 0
a[26,0,132] 0
a[26,0,141] 0
a[26,0,144] 0
a[26,0,165] 0
a[26,0,166] 0
a[26,0,168] 0
a[26,0,173] 0
a[26,0,174] 0
a[26,0,196] 0
a[26,0,223] 0
a[26,0,279] 0
a[26,0,282] 0
a[26,1,41] 0
a[26,1,42] 0
a[26,1,44] 0
a[26,1,47] 0
a[26,1,50] 0
a[26,1,51] 1
a[26,1,57] 0
a[26,1,61] 0
a[26,1,63] 0
a[26,1,64] 0
a[26,1,71] 0
a[26,1,73] 0
a[26,1,81] 0
a[26,1,82] 0
a[26,1,83] 0
a[26,1,88] 0
a[26,1,89] 0
a[26,1,92] 0
a[26,1,94] 0
a[26,1,97] 0
a[26,1,98] 0
a[26,1,102] 0
a[26,1,114] 0
a[26,1,115] 0
a[26,1,120] 0
a[26,1,132] 0
a[26,1,141] 0
a[26,1,144] 0
a[26,1,165] 0
a[26,1,166] 0
a[26,1,168] 0
a[26,1,173] 0
a[26,1,174] 0
a[26,1,196] 0
a[26,1,223] 0
a[26,1,279] 0
a[26,1,282] 0
a[27,0,88] 0
a[27,0,89] 0
a[27,0,92] 0
a[27,0,94] 0
a[27,0,97] 0
a[27,0,98] 0
a[27,0,102] 0
a[27,0,114] 0
a[27,0,115] 0
a[27,0,120] 0
a[27,0,132] 0
a[27,0,141] 0
a[27,0,144] 0
a[27,0,165] 0
a[27,0,166] 0
a[27,0,168] 0
a[27,0,173] 0
a[27,0,174] 0
a[27,0,196] 0
a[27,0,223] 0
a[27,0,279] 0
a[27,0,282] 0
a[27,1,35] 0
a[27,1,40] 0
a[27,1,41] 0
a[27,1,42] 0
a[27,1,44] 0
a[27,1,47] 0
a[27,1,50] 0
a[27,1,51] 1
a[27,1,57] 0
a[27,1,61] 0
a[27,1,63] 0
a[27,1,64] 0
a[27,1,71] 0
a[27,1,73] 0
a[27,1,81] 0
a[27,1,82] 0
a[27,1,83] 0
a[27,1,88] 0
a[27,1,89] 0
a[27,1,92] 0
a[27,1,94] 0
a[27,1,97] 0
a[27,1,98] 0
a[27,1,102] 0
a[27,1,114] 0
a[27,1,115] 0
a[27,1,120] 0
a[27,1,132] 0
a[27,1,141] 0
a[27,1,144] 0
a[27,1,165] 0
a[27,1,166] 0
a[27,1,168] 0
a[27,1,173] 0
a[27,1,174] 0
a[27,1,196] 0
a[27,1,223] 0
a[27,1,279] 0
a[27,1,282] 0
a[28,0,114] 1
a[28,0,115] 0
a[28,0,120] 0
a[28,0,132] 0
a[28,0,141] 0
a[28,0,144] 0
a[28,0,165] 0
a[28,0,166] 0
a[28,0,168] 0
a[28,0,173] 0
a[28,0,174] 0
a[28,0,196] 0
a[28,0,223] 0
a[28,0,279] 0
a[28,0,282] 0
a[28,1,44] 0
a[28,1,47] 0
a[28,1,50] 0
a[28,1,51] 0
a[28,1,57] 0
a[28,1,61] 0
a[28,1,63] 0
a[28,1,64] 0
a[28,1,71] 0
a[28,1,73] 0
a[28,1,81] 0
a[28,1,82] 0
a[28,1,83] 0
a[28,1,88] 0
a[28,1,89] 0
a[28,1,92] 0
a[28,1,94] 0
a[28,1,97] 0
a[28,1,98] 0
a[28,1,102] 0
a[28,1,114] 0
a[28,1,115] 0
a[28,1,120] 0
a[28,1,132] 0
a[28,1,141] 0
a[28,1,144] 0
a[28,1,165] 0
a[28,1,166] 0
a[28,1,168] 0
a[28,1,173] 0
a[28,1,174] 0
a[28,1,196] 0
a[28,1,223] 0
a[28,1,279] 0
a[28,1,282] 0
a[29,0,223] 0
a[29,0,279] 0
a[29,0,282] 0
a[29,1,83] 0
a[29,1,88] 0
a[29,1,89] 0
a[29,1,92] 0
a[29,1,94] 0
a[29,1,97] 0
a[29,1,98] 0
a[29,1,102] 1
a[29,1,114] 0
a[29,1,115] 0
a[29,1,120] 0
a[29,1,132] 0
a[29,1,141] 0
a[29,1,144] 0
a[29,1,165] 0
a[29,1,166] 0
a[29,1,168] 0
a[29,1,173] 0
a[29,1,174] 0
a[29,1,196] 0
a[29,1,223] 0
a[29,1,279] 0
a[29,1,282] 0
a[30,0,9] 1
a[30,0,10] 0
a[30,0,13] 0
a[30,0,14] 0
a[30,0,16] 0
a[30,0,19] 0
a[30,0,21] 0
a[30,0,24] 0
a[30,0,25] 0
a[30,0,28] 0
a[30,0,34] 0
a[30,0,35] 0
a[30,0,40] 0
a[30,0,41] 0
a[30,0,42] 0
a[30,0,44] 0
a[30,0,47] 0
a[30,0,50] 0
a[30,0,51] 0
a[30,0,57] 0
a[30,0,61] 0
a[30,0,63] 0
a[30,0,64] 0
a[30,0,71] 0
a[30,0,73] 0
a[30,0,81] 0
a[30,0,82] 0
a[30,0,83] 0
a[30,0,88] 0
a[30,0,89] 0
a[30,0,92] 0
a[30,0,94] 0
a[30,0,97] 0
a[30,0,98] 0
a[30,0,102] 0
a[30,0,114] 0
a[30,0,115] 0
a[30,0,120] 0
a[30,0,132] 0
a[30,0,141] 0
a[30,0,144] 0
a[30,0,165] 0
a[30,0,166] 0
a[30,0,168] 0
a[30,0,173] 0
a[30,0,174] 0
a[30,0,196] 0
a[30,0,223] 0
a[30,0,279] 0
a[30,0,282] 0
a[30,1,10] 0
a[30,1,13] 0
a[30,1,14] 0
a[30,1,16] 0
a[30,1,19] 0
a[30,1,21] 0
a[30,1,24] 0
a[30,1,25] 0
a[30,1,28] 0
a[30,1,34] 0
a[30,1,35] 0
a[30,1,40] 0
a[30,1,41] 0
a[30,1,42] 0
a[30,1,44] 0
a[30,1,47] 0
a[30,1,50] 0
a[30,1,51] 0
a[30,1,57] 0
a[30,1,61] 0
a[30,1,63] 0
a[30,1,64] 0
a[30,1,71] 0
a[30,1,73] 0
a[30,1,81] 0
a[30,1,82] 0
a[30,1,83] 0
a[30,1,88] 0
a[30,1,89] 0
a[30,1,92] 0
a[30,1,94] 0
a[30,1,97] 0
a[30,1,98] 0
a[30,1,102] 0
a[30,1,114] 0
a[30,1,115] 0
a[30,1,120] 0
a[30,1,132] 0
a[30,1,141] 0
a[30,1,144] 0
a[30,1,165] 0
a[30,1,166] 0
a[30,1,168] 0
a[30,1,173] 0
a[30,1,174] 0
a[30,1,196] 0
a[30,1,223] 0
a[30,1,279] 0
a[30,1,282] 0
a[31,0,51] 1
a[31,0,57] 0
a[31,0,61] 0
a[31,0,63] 0
a[31,0,64] 0
a[31,0,71] 0
a[31,0,73] 0
a[31,0,81] 0
a[31,0,82] 0
a[31,0,83] 0
a[31,0,88] 0
a[31,0,89] 0
a[31,0,92] 0
a[31,0,94] 0
a[31,0,97] 0
a[31,0,98] 0
a[31,0,102] 0
a[31,0,114] 0
a[31,0,115] 0
a[31,0,120] 0
a[31,0,132] 0
a[31,0,141] 0
a[31,0,144] 0
a[31,0,165] 0
a[31,0,166] 0
a[31,0,168] 0
a[31,0,173] 0
a[31,0,174] 0
a[31,0,196] 0
a[31,0,223] 0
a[31,0,279] 0
a[31,0,282] 0
a[31,1,28] 0
a[31,1,34] 0
a[31,1,35] 0
a[31,1,40] 0
a[31,1,41] 0
a[31,1,42] 0
a[31,1,44] 0
a[31,1,47] 0
a[31,1,50] 0
a[31,1,51] 0
a[31,1,57] 0
a[31,1,61] 0
a[31,1,63] 0
a[31,1,64] 0
a[31,1,71] 0
a[31,1,73] 0
a[31,1,81] 0
a[31,1,82] 0
a[31,1,83] 0
a[31,1,88] 0
a[31,1,89] 0
a[31,1,92] 0
a[31,1,94] 0
a[31,1,97] 0
a[31,1,98] 0
a[31,1,102] 0
a[31,1,114] 0
a[31,1,115] 0
a[31,1,120] 0
a[31,1,132] 0
a[31,1,141] 0
a[31,1,144] 0
a[31,1,165] 0
a[31,1,166] 0
a[31,1,168] 0
a[31,1,173] 0
a[31,1,174] 0
a[31,1,196] 0
a[31,1,223] 0
a[31,1,279] 0
a[31,1,282] 0
a[32,0,6] 0
a[32,0,7] 0
a[32,0,8] 0
a[32,0,9] 1
a[32,0,10] 0
a[32,0,13] 0
a[32,0,14] 0
a[32,0,16] 0
a[32,0,19] 0
a[32,0,21] 0
a[32,0,24] 0
a[32,0,25] 0
a[32,0,28] 0
a[32,0,34] 0
a[32,0,35] 0
a[32,0,40] 0
a[32,0,41] 0
a[32,0,42] 0
a[32,0,44] 0
a[32,0,47] 0
a[32,0,50] 0
a[32,0,51] 0
a[32,0,57] 0
a[32,0,61] 0
a[32,0,63] 0
a[32,0,64] 0
a[32,0,71] 0
a[32,0,73] 0
a[32,0,81] 0
a[32,0,82] 0
a[32,0,83] 0
a[32,0,88] 0
a[32,0,89] 0
a[32,0,92] 0
a[32,0,94] 0
a[32,0,97] 0
a[32,0,98] 0
a[32,0,102] 0
a[32,0,114] 0
a[32,0,115] 0
a[32,0,120] 0
a[32,0,132] 0
a[32,0,141] 0
a[32,0,144] 0
a[32,0,165] 0
a[32,0,166] 0
a[32,0,168] 0
a[32,0,173] 0
a[32,0,174] 0
a[32,0,196] 0
a[32,0,223] 0
a[32,0,279] 0
a[32,0,282] 0
a[32,1,2] 0
a[32,1,3] 0
a[32,1,4] 0
a[32,1,5] 0
a[32,1,6] 0
a[32,1,7] 0
a[32,1,8] 0
a[32,1,9] 0
a[32,1,10] 0
a[32,1,13] 0
a[32,1,14] 0
a[32,1,16] 0
a[32,1,19] 0
a[32,1,21] 0
a[32,1,24] 0
a[32,1,25] 0
a[32,1,28] 0
a[32,1,34] 0
a[32,1,35] 0
a[32,1,40] 0
a[32,1,41] 0
a[32,1,42] 0
a[32,1,44] 0
a[32,1,47] 0
a[32,1,50] 0
a[32,1,51] 0
a[32,1,57] 0
a[32,1,61] 0
a[32,1,63] 0
a[32,1,64] 0
a[32,1,71] 0
a[32,1,73] 0
a[32,1,81] 0
a[32,1,82] 0
a[32,1,83] 0
a[32,1,88] 0
a[32,1,89] 0
a[32,1,92] 0
a[32,1,94] 0
a[32,1,97] 0
a[32,1,98] 0
a[32,1,102] 0
a[32,1,114] 0
a[32,1,115] 0
a[32,1,120] 0
a[32,1,132] 0
a[32,1,141] 0
a[32,1,144] 0
a[32,1,165] 0
a[32,1,166] 0
a[32,1,168] 0
a[32,1,173] 0
a[32,1,174] 0
a[32,1,196] 0
a[32,1,223] 0
a[32,1,279] 0
a[32,1,282] 0
a[33,0,115] 0
a[33,0,120] 0
a[33,0,132] 0
a[33,0,141] 0
a[33,0,144] 0
a[33,0,165] 0
a[33,0,166] 0
a[33,0,168] 0
a[33,0,173] 0
a[33,0,174] 0
a[33,0,196] 0
a[33,0,223] 0
a[33,0,279] 0
a[33,0,282] 0
a[33,1,63] 0
a[33,1,64] 0
a[33,1,71] 0
a[33,1,73] 0
a[33,1,81] 0
a[33,1,82] 0
a[33,1,83] 0
a[33,1,88] 0
a[33,1,89] 0
a[33,1,92] 0
a[33,1,94] 0
a[33,1,97] 0
a[33,1,98] 0
a[33,1,102] 0
a[33,1,114] 0
a[33,1,115] 0
a[33,1,120] 0
a[33,1,132] 0
a[33,1,141] 0
a[33,1,144] 0
a[33,1,165] 0
a[33,1,166] 0
a[33,1,168] 0
a[33,1,173] 0
a[33,1,174] 1
a[33,1,196] 0
a[33,1,223] 0
a[33,1,279] 0
a[33,1,282] 0
a[34,0,24] 0
a[34,0,25] 0
a[34,0,28] 0
a[34,0,34] 0
a[34,0,35] 0
a[34,0,40] 0
a[34,0,41] 0
a[34,0,42] 0
a[34,0,44] 0
a[34,0,47] 0
a[34,0,50] 0
a[34,0,51] 0
a[34,0,57] 0
a[34,0,61] 0
a[34,0,63] 0
a[34,0,64] 0
a[34,0,71] 0
a[34,0,73] 0
a[34,0,81] 0
a[34,0,82] 0
a[34,0,83] 0
a[34,0,88] 0
a[34,0,89] 0
a[34,0,92] 0
a[34,0,94] 0
a[34,0,97] 0
a[34,0,98] 0
a[34,0,102] 0
a[34,0,114] 0
a[34,0,115] 0
a[34,0,120] 0
a[34,0,132] 0
a[34,0,141] 0
a[34,0,144] 0
a[34,0,165] 0
a[34,0,166] 0
a[34,0,168] 0
a[34,0,173] 0
a[34,0,174] 0
a[34,0,196] 0
a[34,0,223] 0
a[34,0,279] 0
a[34,0,282] 0
a[34,1,8] 0
a[34,1,9] 0
a[34,1,10] 0
a[34,1,13] 0
a[34,1,14] 0
a[34,1,16] 0
a[34,1,19] 0
a[34,1,21] 0
a[34,1,24] 0
a[34,1,25] 0
a[34,1,28] 0
a[34,1,34] 0
a[34,1,35] 0
a[34,1,40] 0
a[34,1,41] 0
a[34,1,42] 0
a[34,1,44] 0
a[34,1,47] 0
a[34,1,50] 0
a[34,1,51] 0
a[34,1,57] 0
a[34,1,61] 0
a[34,1,63] 0
a[34,1,64] 0
a[34,1,71] 0
a[34,1,73] 0
a[34,1,81] 0
a[34,1,82] 0
a[34,1,83] 0
a[34,1,88] 0
a[34,1,89] 0
a[34,1,92] 0
a[34,1,94] 0
a[34,1,97] 0
a[34,1,98] 0
a[34,1,102] 0
a[34,1,114] 0
a[34,1,115] 0
a[34,1,120] 0
a[34,1,132] 0
a[34,1,141] 0
a[34,1,144] 1
a[34,1,165] 0
a[34,1,166] 0
a[34,1,168] 0
a[34,1,173] 0
a[34,1,174] 0
a[34,1,196] 0
a[34,1,223] 0
a[34,1,279] 0
a[34,1,282] 0
x[2] 0
x[3] 0
x[4] 0
x[5] 0
x[6] 0
x[7] 0
x[8] 0
x[9] 1
x[10] 0
x[13] 0
x[14] 0
x[16] 0
x[19] 0
x[21] 0
x[24] 0
x[25] 0
x[28] 0
x[34] 0
x[35] 0
x[40] 0
x[41] 0
x[42] 0
x[44] 0
x[47] 0
x[50] 0
x[51] 1
x[57] 0
x[61] 0
x[63] 0
x[64] 0
x[71] 0
x[73] 0
x[81] 0
x[82] 0
x[83] 0
x[88] 0
x[89] 0
x[92] 0
x[94] 0
x[97] 0
x[98] 0
x[102] 1
x[114] 1
x[115] 0
x[120] 0
x[132] 0
x[141] 0
x[144] 1
x[165] 0
x[166] 0
x[168] 0
x[173] 0
x[174] 1
x[196] 0
x[223] 0
x[279] 0
x[282] 0
B[2] 0
B[3] 0
B[4] 0
B[5] 0
B[6] 0
B[7] 0
B[8] 0
B[9] 1.0712724573673666e+00
B[10] 0
B[13] 0
B[14] 0
B[16] 0
B[19] 0
B[21] 0
B[24] 0
B[25] 0
B[28] 0
B[34] 0
B[35] 0
B[40] 0
B[41] 0
B[42] 0
B[44] 0
B[47] 0
B[50] 0
B[51] 1.3219888091958718e+00
B[57] 0
B[61] 0
B[63] 0
B[64] 0
B[71] 0
B[73] 0
B[81] 0
B[82] 0
B[83] 0
B[88] 0
B[89] 0
B[92] 0
B[94] 0
B[97] 0
B[98] 0
B[102] 1.3871861622369943e+00
B[114] 3.8451302775011165e-01
B[115] 0
B[120] 0
B[132] 0
B[141] 0
B[144] 6.1492764803045141e-01
B[165] 0
B[166] 0
B[168] 0
B[173] 0
B[174] 9.9742702832060148e-01
B[196] 0
B[223] 0
B[279] 0
B[282] 0
